solution status: optimal solution found
objective value:                                    6
x31                                                 1 	(obj:1)
x32                                                 1 	(obj:1)
x45                                                 1 	(obj:1)
x47                                                 1 	(obj:1)
x54                                                 1 	(obj:1)
x78                                                 1 	(obj:1)
bank.push_ctrl_hole_y                              19 	(obj:0)
bank.push_ctrl_hole_z                              18 	(obj:0)
bank.cells_in_ctrl_hole_y                          19 	(obj:0)
bank.cells_in_ctrl_hole_z                          19 	(obj:0)
bank.beads_flush_hole_y                            18 	(obj:0)
bank.beads_flush_hole_z                            17 	(obj:0)
bank.thing.devices[0].thingy.vpump3_y                   22 	(obj:0)
bank.thing.devices[0].thingy.vpump3_z                   23 	(obj:0)
bank.beads_ctrl_hole_y                             18 	(obj:0)
bank.beads_ctrl_hole_z                             21 	(obj:0)
bank.thing.devices[0].thingy.vcell_out_y                   20 	(obj:0)
bank.thing.devices[0].thingy.vcell_out_z                   21 	(obj:0)
bank.thing.devices[0].thingy.vpump1_y                   22 	(obj:0)
bank.thing.devices[0].thingy.vpump1_z                   22 	(obj:0)
bank.cells_in_flush_hole_y                         18 	(obj:0)
bank.cells_in_flush_hole_z                         22 	(obj:0)
bank.thing.devices[0].thingy.vpump2_y                   21 	(obj:0)
bank.thing.devices[0].thingy.vpump2_z                   22 	(obj:0)
bank.lysis_in_ctrl_hole_y                          18 	(obj:0)
bank.lysis_in_ctrl_hole_z                          20 	(obj:0)
bank.thing.devices[0].thingy.vsieve_y                   21 	(obj:0)
bank.thing.devices[0].thingy.vsieve_z                   21 	(obj:0)
bank.lysis_in_flush_hole_y                         18 	(obj:0)
bank.lysis_in_flush_hole_z                         19 	(obj:0)
bank.thing.devices[0].thingy.vbead_out_y                   20 	(obj:0)
bank.thing.devices[0].thingy.vbead_out_z                   20 	(obj:0)
bank.thing.devices[0].thingy.vsep_y                   22 	(obj:0)
bank.thing.devices[0].thingy.vsep_z                   21 	(obj:0)
bank.push_flush_hole_y                             18 	(obj:0)
bank.push_flush_hole_z                             18 	(obj:0)
